unsat
(:cnf-encoding-aux-vars 59
 :eliminated-vars       63
 :max-memory            18.68
 :memory                18.26
 :nlsat-conflicts       10
 :nlsat-decisions       9
 :nlsat-learned-added   9
 :nlsat-propagations    52
 :num-allocs            15386
 :rlimit-count          41937
 :time                  0.01
 :total-time            0.03)
